15
1 0 7
2 0 10
4 1 1
4 2 26
4 3 19
5 1 44
5 2 39
6 1 43
6 2 50
6 3 16
6 4 12
7 1 50
7 5 38
7 6 32
8 3 46
8 5 29
8 6 29
8 7 26
9 0 9
9 1 40
9 2 49
9 5 29
9 7 45
10 0 20
10 2 29
10 3 18
10 8 49
11 0 33
11 1 26
11 2 13
11 4 28
11 5 19
11 7 13
11 8 8
11 9 41
11 10 35
12 0 3
12 1 7
12 2 31
12 3 5
12 4 30
12 10 10
12 11 47
13 0 40
13 1 44
13 4 30
13 5 19
13 9 35
13 10 33
13 11 32
13 12 40
14 1 22
14 2 43
14 3 26
14 5 17
14 6 26
14 7 42
14 8 30
14 10 30
14 11 16
14 13 27
